This is Ipopt version 3.12.3, running with linear solver mumps.
NOTE: Other linear solvers might be more efficient (see Ipopt documentation).

Number of nonzeros in equality constraint Jacobian...:    74270
Number of nonzeros in inequality constraint Jacobian.:    22796
Number of nonzeros in Lagrangian Hessian.............:    14700

Total number of variables............................:    16356
                     variables with only lower bounds:        0
                variables with lower and upper bounds:        0
                     variables with only upper bounds:        0
Total number of equality constraints.................:    14700
Total number of inequality constraints...............:    19576
        inequality constraints with only lower bounds:     1610
   inequality constraints with lower and upper bounds:    16356
        inequality constraints with only upper bounds:     1610

iter    objective    inf_pr   inf_du lg(mu)  ||d||  lg(rg) alpha_du alpha_pr  ls
   0 6.4401610e-001 5.72e+002 1.67e+000  -1.0 0.00e+000    -  0.00e+000 0.00e+000   0
   1 9.0618573e+001 6.82e+001 3.51e+000  -1.0 7.20e+000    -  7.33e-001 1.00e+000h  1
   2 8.8231598e+001 1.81e+001 4.82e+000  -1.0 5.74e-001   0.0 9.88e-001 1.00e+000f  1
   3 8.4712715e+001 3.33e+000 3.91e+000  -1.0 5.07e-001  -0.5 1.00e+000 1.00e+000f  1
   4 7.5918926e+001 2.23e+001 1.89e-001  -1.0 1.30e+000  -1.0 1.00e+000 1.00e+000f  1
   5 5.5609842e+001 8.20e+001 3.65e+000  -1.7 2.72e+000  -1.4 8.26e-001 1.00e+000f  1
   6 4.9051520e+001 2.58e+001 1.64e-001  -1.7 9.11e-001  -1.0 1.00e+000 1.00e+000f  1
   7 3.6118611e+001 4.47e+000 7.29e-002  -1.7 2.21e+000  -1.5 1.00e+000 1.00e+000f  1
   8 3.1751759e+001 1.83e+001 8.99e-002  -2.5 7.27e-001  -1.1 1.00e+000 1.00e+000f  1
   9 2.2769169e+001 2.42e+001 1.19e+000  -2.5 1.89e+000  -1.5 1.00e+000 1.00e+000f  1
iter    objective    inf_pr   inf_du lg(mu)  ||d||  lg(rg) alpha_du alpha_pr  ls
  10 1.9963666e+001 5.91e+001 1.38e+000  -2.5 7.84e-001  -1.1 1.00e+000 1.00e+000f  1
  11 1.4660804e+001 3.81e+001 1.11e+000  -2.5 1.65e+000  -1.6 1.00e+000 1.00e+000f  1
  12 1.3224478e+001 4.12e+001 3.16e+000  -2.5 7.89e-001  -1.2 3.16e-001 1.00e+000h  1
  13 1.2693078e+001 5.32e+000 5.37e-001  -2.5 2.41e-001  -0.7 1.00e+000 1.00e+000h  1
  14 1.1324567e+001 5.86e+000 3.41e-001  -2.5 5.45e-001  -1.2 1.00e+000 1.00e+000f  1
  15 8.6913532e+000 2.86e+001 7.37e-002  -2.5 1.30e+000  -1.7 1.00e+000 1.00e+000f  1
  16 7.9710722e+000 1.35e+000 2.70e-002  -2.5 4.93e-001  -1.3 1.00e+000 1.00e+000h  1
  17 6.5895330e+000 2.53e+000 1.89e-002  -2.5 1.03e+000  -1.7 1.00e+000 1.00e+000f  1
  18 6.1932258e+000 3.42e-001 1.70e-002  -2.5 3.50e-001  -1.3 1.00e+000 1.00e+000h  1
  19 5.1934983e+000 4.08e+000 1.04e-001  -3.8 1.08e+000  -1.8 1.00e+000 8.60e-001f  1
iter    objective    inf_pr   inf_du lg(mu)  ||d||  lg(rg) alpha_du alpha_pr  ls
  20 4.5602189e+000 6.27e+000 6.49e-002  -3.8 2.17e+000  -2.3 1.00e+000 3.61e-001f  1
  21 4.4371490e+000 6.96e+000 1.48e-001  -3.8 2.76e+001  -2.7 9.83e-002 4.30e-002h  1
  22 3.9620037e+000 4.56e+000 9.71e-002  -3.8 1.94e+000  -2.3 1.00e+000 3.46e-001h  1
  23 3.1983009e+000 5.80e+000 1.03e-001  -3.8 3.98e+000  -2.8 1.00e+000 3.67e-001h  1
  24 2.4768676e+000 2.35e+001 1.44e-001  -3.8 7.52e+000  -3.3 1.45e-001 3.01e-001h  1
  25 2.2853020e+000 1.92e+001 1.14e-001  -3.8 2.43e+000  -2.8 1.00e+000 1.90e-001h  1
  26 1.7027268e+000 1.10e+001 5.85e-002  -3.8 4.41e+000  -3.3 1.00e+000 4.55e-001h  1
  27 1.3907253e+000 1.89e+001 1.26e-002  -3.8 1.99e+000  -2.9 1.00e+000 7.83e-001h  1
  28 1.1055799e+000 1.08e+000 7.64e-003  -3.8 2.90e+000  -3.4 1.00e+000 1.00e+000h  1
  29 1.0427542e+000 3.47e+000 2.71e-003  -3.8 2.40e+000  -3.9 1.00e+000 1.00e+000h  1
iter    objective    inf_pr   inf_du lg(mu)  ||d||  lg(rg) alpha_du alpha_pr  ls
  30 1.0387331e+000 2.40e+001 8.70e-003  -3.8 2.38e+000  -4.3 5.65e-001 1.00e+000h  1
  31 1.0316401e+000 4.97e+001 7.73e-003  -3.8 1.08e+001    -  7.25e-001 5.88e-001h  1
  32 1.0405131e+000 2.78e+001 7.88e-004  -3.8 7.68e+000    -  1.00e+000 1.00e+000h  1
  33 1.0433622e+000 2.15e+000 7.00e-004  -3.8 1.70e+000    -  1.00e+000 1.00e+000h  1
  34 1.0432706e+000 5.83e-001 1.32e-004  -3.8 3.84e-001    -  1.00e+000 1.00e+000h  1
  35 1.0432661e+000 4.14e-002 2.03e-006  -3.8 3.96e-002    -  1.00e+000 1.00e+000h  1
  36 6.5439826e-001 3.07e+001 2.48e-003  -5.7 1.24e+001    -  7.62e-001 6.33e-001f  1
  37 3.9570708e-001 2.93e+001 6.34e-003  -5.7 9.43e+000    -  3.88e-001 7.37e-001h  1
  38 3.3402444e-001 1.68e+001 2.84e-003  -5.7 6.48e+000    -  2.48e-001 4.78e-001h  1
  39 3.2396541e-001 1.47e+001 2.51e-003  -5.7 4.72e+000    -  6.71e-001 1.28e-001h  1
iter    objective    inf_pr   inf_du lg(mu)  ||d||  lg(rg) alpha_du alpha_pr  ls
  40 2.7437557e-001 9.74e+000 1.01e-003  -5.7 4.62e+000    -  1.00e+000 6.79e-001h  1
  41 2.5365282e-001 7.25e+000 4.98e-004  -5.7 2.93e+000    -  1.00e+000 7.37e-001h  1
  42 2.4624580e-001 2.43e+000 7.44e-005  -5.7 1.23e+000    -  1.00e+000 1.00e+000h  1
  43 2.4610899e-001 5.27e-002 6.06e-006  -5.7 8.24e-002    -  1.00e+000 1.00e+000h  1
  44 2.4610425e-001 4.12e-005 8.22e-009  -5.7 1.09e-002    -  1.00e+000 1.00e+000h  1
  45 2.4190418e-001 3.01e-001 8.56e-004  -7.0 1.67e+000    -  9.23e-001 4.94e-001f  1
  46 2.3931278e-001 3.80e-001 1.16e-003  -7.0 1.46e+000    -  1.00e+000 5.81e-001h  1
  47 2.3821312e-001 2.33e-001 8.56e-004  -7.0 9.43e-001    -  1.00e+000 6.44e-001h  1
  48 2.3770589e-001 5.13e-002 5.44e-005  -7.0 4.73e-001    -  1.00e+000 9.73e-001h  1
  49 2.3769375e-001 5.44e-004 2.51e-008  -7.0 7.10e-002    -  1.00e+000 1.00e+000h  1
iter    objective    inf_pr   inf_du lg(mu)  ||d||  lg(rg) alpha_du alpha_pr  ls
  50 2.3769295e-001 1.57e-005 3.49e-010  -7.0 1.13e-002    -  1.00e+000 1.00e+000h  1
  51 2.3769294e-001 3.08e-009 9.09e-013  -7.0 1.59e-004    -  1.00e+000 1.00e+000h  1

Number of Iterations....: 51

                                   (scaled)                 (unscaled)
Objective...............:  2.3769293697314464e-001   2.3769293697314464e-001
Dual infeasibility......:  9.0909094488389464e-013   9.0909094488389464e-013
Constraint violation....:  3.5045567953705104e-010   3.0840539011478540e-009
Complementarity.........:  9.0909775070507091e-008   9.0909775070507091e-008
Overall NLP error.......:  9.0909775070507091e-008   9.0909775070507091e-008


Number of objective function evaluations             = 52
Number of objective gradient evaluations             = 52
Number of equality constraint evaluations            = 52
Number of inequality constraint evaluations          = 52
Number of equality constraint Jacobian evaluations   = 52
Number of inequality constraint Jacobian evaluations = 52
Number of Lagrangian Hessian evaluations             = 51
Total CPU secs in IPOPT (w/o function evaluations)   =      5.921
Total CPU secs in NLP function evaluations           =      1.105

EXIT: Optimal Solution Found.
               t_proc [s]   t_wall [s]    n_eval
       nlp_f        0.018       0.0196        52
       nlp_g        0.078       0.0752        52
  nlp_grad_f        0.034        0.035        53
  nlp_hess_l        0.458         0.46        51
   nlp_jac_g        0.515        0.515        53
      solver         7.03         7.03         1
